0 3494
2 3469
3 3447
5 3445
6 3399
10 3357
23 3313
24 3299
26 3293
29 3269
30 3199
31 3193
34 3150
35 3116
39 3096
43 3023
54 3008
65 2975
66 2968
69 2928
73 2903
75 2886
81 2874
86 2868
99 2860
101 2827
193 2807
196 2800
200 2786
227 2762
265 2754
573 2752
4845 2751
4855 2747
4880 2746
5531 2741
9709 2735
26578 2729
1154371 2724
